; COMMAND-LINE: --solve-int-as-bag
; EXPECT: sat
; DISABLE-TESTER: model
(set-logic ALL)
(set-info :status sat)
(set-option :incremental false)
(declare-fun x0 () Int)
(declare-fun x1 () Int)
(declare-fun x2 () Int)
(declare-fun x3 () Int)
(declare-fun x4 () Int)
(declare-fun x5 () Int)
(declare-fun x6 () Int)
(declare-fun x7 () Int)
(declare-fun x8 () Int)
(assert (>= x0 0))
(assert (>= x1 0))
(assert (>= x2 0))
(assert (>= x3 0))
(assert (>= x4 0))
(assert (>= x5 0))
(assert (>= x6 0))
(assert (>= x7 0))
(assert (>= x8 0))
(assert (distinct x1 x0))
(assert (distinct x2 x0))
(assert (distinct x3 x0))
(assert (distinct x4 x0))
(assert (distinct x5 x0))
(assert (distinct x6 x0))
(assert (distinct x7 x0))
(assert (distinct x8 x0))
(assert (= (* (* (* (* (* (* (* (* x0 x1) x2) x3) x4) x5) x6) x7) x8) x0))
(check-sat)
